; Options: -in -smt2
(set-option :produce-unsat-assumptions true)

(declare-fun start!2819 () Bool)

(assert start!2819)

(declare-fun b!15716 () Bool)

(declare-fun e!8762 () Bool)

(declare-fun j!78 () (_ BitVec 32))

(declare-fun z!100 () (_ FloatingPoint 11 53))

(assert (=> b!15716 (= e!8762 (and (bvsgt j!78 #b00000000000000000000000000000000) (let ((expr!19 (fp.sub roundNearestTiesToEven z!100 (fp.mul roundNearestTiesToEven (fp #b0 #b10000010111 #b0000000000000000000000000000000000000000000000000000) ((_ to_fp 11 53) roundNearestTiesToEven (ite (fp.isNaN (fp.mul roundNearestTiesToEven (fp #b0 #b01111100111 #b0000000000000000000000000000000000000000000000000000) z!100)) #b00000000000000000000000000000000 (ite (fp.gt (fp.mul roundNearestTiesToEven (fp #b0 #b01111100111 #b0000000000000000000000000000000000000000000000000000) z!100) ((_ to_fp 11 53) roundTowardZero #b01111111111111111111111111111111)) #b01111111111111111111111111111111 (ite (fp.lt (fp.mul roundNearestTiesToEven (fp #b0 #b01111100111 #b0000000000000000000000000000000000000000000000000000) z!100) ((_ to_fp 11 53) roundTowardZero #b10000000000000000000000000000000)) #b10000000000000000000000000000000 ((_ fp.to_sbv 32) roundTowardZero (fp.mul roundNearestTiesToEven (fp #b0 #b01111100111 #b0000000000000000000000000000000000000000000000000000) z!100)))))))))) (and (not (fp.isNaN expr!19)) (not (fp.gt expr!19 ((_ to_fp 11 53) roundTowardNegative #b101111111111111111111111111111111)))))))))

(declare-fun b!15713 () Bool)

(declare-fun res!12276 () Bool)

(assert (=> b!15713 (=> (not res!12276) (not e!8762))))

(declare-datatypes ((array!1254 0))(
  ( (array!1255 (arr!551 (Array (_ BitVec 32) (_ FloatingPoint 11 53))) (size!551 (_ BitVec 32))) )
))
(declare-fun q!79 () array!1254)

(declare-fun qInv!0 (array!1254) Bool)

(assert (=> b!15713 (= res!12276 (qInv!0 q!79))))

(declare-fun b!15714 () Bool)

(declare-fun res!12273 () Bool)

(assert (=> b!15714 (=> (not res!12273) (not e!8762))))

(declare-fun jz!49 () (_ BitVec 32))

(assert (=> b!15714 (= res!12273 (and (bvsle #b00000000000000000000000000000000 j!78) (bvsle j!78 jz!49) (fp.leq (fp #b0 #b00000000000 #b0000000000000000000000000000000000000000000000000000) z!100) (fp.leq z!100 (fp #b0 #b10000110001 #b0100000000000000000000010011111111111111111111111100))))))

(declare-fun b!15715 () Bool)

(declare-fun res!12275 () Bool)

(assert (=> b!15715 (=> (not res!12275) (not e!8762))))

(declare-datatypes ((array!1256 0))(
  ( (array!1257 (arr!552 (Array (_ BitVec 32) (_ BitVec 32))) (size!552 (_ BitVec 32))) )
))
(declare-fun iq!146 () array!1256)

(declare-fun iqInv!0 (array!1256) Bool)

(assert (=> b!15715 (= res!12275 (iqInv!0 iq!146))))

(declare-fun res!12274 () Bool)

(assert (=> start!2819 (=> (not res!12274) (not e!8762))))

(assert (=> start!2819 (= res!12274 (and (bvsle #b00000000000000000000000000000010 jz!49) (bvslt jz!49 #b00000000000000000000000000010011)))))

(assert (=> start!2819 e!8762))

(assert (=> start!2819 true))

(declare-fun array_inv!499 (array!1256) Bool)

(assert (=> start!2819 (array_inv!499 iq!146)))

(declare-fun array_inv!500 (array!1254) Bool)

(assert (=> start!2819 (array_inv!500 q!79)))

(assert (= (and start!2819 res!12274) b!15713))

(assert (= (and b!15713 res!12276) b!15714))

(assert (= (and b!15714 res!12273) b!15715))

(assert (= (and b!15715 res!12275) b!15716))

(declare-fun m!23819 () Bool)

(assert (=> b!15713 m!23819))

(declare-fun m!23821 () Bool)

(assert (=> b!15715 m!23821))

(declare-fun m!23823 () Bool)

(assert (=> start!2819 m!23823))

(declare-fun m!23825 () Bool)

(assert (=> start!2819 m!23825))

(check-sat (not b!15713) (not start!2819) (not b!15715))
(check-sat)
